NAME: tsp_341
COMMENT: Random TSP instance
TYPE: TSP
DIMENSION: 50
EDGE_WEIGHT_TYPE: EUC_2D
NODE_COORD_SECTION
1 382 530
2 335 492
3 597 799
4 523 155
5 437 963
6 788 896
7 744 734
8 299 758
9 845 784
10 818 345
11 897 798
12 115 617
13 41 482
14 548 176
15 119 453
16 723 273
17 635 361
18 524 944
19 398 123
20 286 767
21 464 427
22 89 694
23 166 735
24 963 738
25 255 814
26 419 239
27 949 321
28 681 461
29 670 438
30 287 591
31 905 291
32 739 743
33 65 31
34 538 74
35 736 145
36 232 914
37 163 325
38 756 821
39 561 112
40 302 655
41 39 490
42 986 506
43 572 493
44 286 103
45 166 55
46 675 468
47 318 416
48 144 246
49 869 173
50 810 775
